SDVRP instances/custom_instances/p01_14_split0.vrp
NAME:p01_14_split
BEST_KNOWN: 0
COMMENT: 0
DIMENSION: 219
CAPACITY: 160
EDGE_WEIGHT_FORMAT: FUNCTION
EDGE_WEIGHT_TYPE: EXACT_2D
NODE_COORD_SECTION
1 0.00000 0.00000
2 -42 -22
3 -42 -22
4 -42 -22
5 -42 -22
6 -15 -3
7 -15 -3
8 -15 -3
9 -15 -3
10 -15 -3
11 -15 -3
12 1 -43
13 1 -43
14 1 -43
15 48 50
16 48 50
17 48 50
18 48 50
19 48 50
20 48 50
21 18 20
22 18 20
23 18 20
24 18 20
25 -39 33
26 -39 33
27 -39 33
28 -39 33
29 -39 33
30 -20 -17
31 -20 -17
32 -20 -17
33 -20 -17
34 -20 -17
35 -20 -17
36 40 43
37 40 43
38 40 43
39 40 43
40 40 43
41 40 43
42 -22 43
43 -22 43
44 -22 43
45 -22 43
46 -22 43
47 -22 43
48 39 -43
49 39 -43
50 39 -43
51 -41 9
52 -41 9
53 -41 9
54 -41 9
55 -41 9
56 35 8
57 35 8
58 35 8
59 35 8
60 35 8
61 -13 13
62 -13 13
63 -13 13
64 -13 13
65 -13 13
66 -13 13
67 2 38
68 2 38
69 2 38
70 2 38
71 -39 -23
72 -39 -23
73 -39 -23
74 -39 -23
75 -46 -4
76 -46 -4
77 -46 -4
78 -46 -4
79 21 45
80 21 45
81 -12 18
82 -12 18
83 -12 18
84 -12 18
85 -25 -6
86 -25 -6
87 -25 -6
88 -25 -6
89 -25 -6
90 -45 46
91 -45 46
92 -45 46
93 -45 46
94 -45 46
95 -45 46
96 -45 46
97 32 -35
98 41 -4
99 41 -4
100 41 -4
101 41 -4
102 4 21
103 4 21
104 4 21
105 -35 -6
106 -35 -6
107 -35 -6
108 -35 -6
109 -35 -6
110 -35 -6
111 29 42
112 29 42
113 29 42
114 29 42
115 29 42
116 38 -50
117 38 -50
118 38 -50
119 38 -50
120 -14 -34
121 -14 -34
122 -14 -34
123 -14 -34
124 -14 -34
125 26 -31
126 26 -31
127 26 -31
128 -4 20
129 -4 20
130 -4 20
131 -4 20
132 5 -29
133 5 -29
134 5 -29
135 5 -29
136 39 21
137 39 21
138 39 21
139 39 21
140 39 21
141 47 -49
142 47 -49
143 47 -49
144 47 -49
145 40 18
146 40 18
147 40 18
148 -8 -50
149 -8 -50
150 40 24
151 40 24
152 40 24
153 40 24
154 42 22
155 42 22
156 42 22
157 42 22
158 42 22
159 30 -8
160 30 -8
161 30 -8
162 30 -8
163 -15 26
164 -15 26
165 -15 26
166 -15 26
167 33 -23
168 33 -23
169 33 -23
170 33 -23
171 33 -23
172 -34 -23
173 -34 -23
174 -34 -23
175 -34 -23
176 -34 -23
177 -34 -23
178 -38 -6
179 -38 -6
180 -17 -50
181 -17 -50
182 -17 -50
183 -17 -50
184 -17 -50
185 27 -41
186 27 -41
187 27 -41
188 27 -41
189 27 -41
190 -28 -50
191 -28 -50
192 -28 -50
193 -28 -50
194 -28 -50
195 26 -42
196 26 -42
197 26 -42
198 26 -42
199 46 47
200 46 47
201 46 47
202 46 47
203 -34 -49
204 -34 -49
205 -34 -49
206 -34 -49
207 15 19
208 15 19
209 15 19
210 15 19
211 15 19
212 15 19
213 47 -3
214 47 -3
215 47 -3
216 29 -27
217 29 -27
218 29 -27
219 29 -27
DEMAND_SECTION
1 0
2 32
3 32
4 8
5 1
6 32
7 16
8 8
9 2
10 2
11 1
12 32
13 2
14 2
15 32
16 16
17 8
18 2
19 2
20 1
21 32
22 32
23 8
24 2
25 16
26 8
27 2
28 2
29 2
30 32
31 16
32 8
33 2
34 2
35 1
36 32
37 32
38 2
39 2
40 2
41 1
42 32
43 8
44 2
45 2
46 2
47 1
48 32
49 32
50 2
51 32
52 16
53 2
54 2
55 2
56 32
57 32
58 2
59 2
60 1
61 32
62 16
63 2
64 2
65 2
66 1
67 32
68 32
69 2
70 2
71 32
72 32
73 8
74 1
75 16
76 8
77 2
78 2
79 32
80 2
81 16
82 2
83 2
84 2
85 32
86 32
87 2
88 2
89 1
90 32
91 32
92 8
93 2
94 2
95 2
96 1
97 32
98 16
99 2
100 2
101 1
102 32
103 32
104 16
105 32
106 32
107 8
108 2
109 2
110 1
111 32
112 16
113 8
114 2
115 1
116 16
117 2
118 2
119 1
120 32
121 16
122 8
123 2
124 1
125 32
126 2
127 2
128 32
129 16
130 8
131 1
132 16
133 8
134 2
135 1
136 32
137 8
138 2
139 2
140 2
141 16
142 2
143 2
144 1
145 32
146 32
147 8
148 32
149 32
150 16
151 2
152 2
153 2
154 32
155 32
156 2
157 2
158 2
159 32
160 8
161 2
162 2
163 32
164 16
165 8
166 1
167 16
168 8
169 2
170 2
171 2
172 32
173 32
174 2
175 2
176 2
177 1
178 16
179 8
180 32
181 16
182 8
183 2
184 2
185 32
186 16
187 2
188 2
189 1
190 16
191 8
192 2
193 2
194 2
195 16
196 2
197 2
198 2
199 16
200 2
201 2
202 2
203 32
204 32
205 2
206 1
207 16
208 8
209 2
210 2
211 2
212 1
213 32
214 32
215 8
216 16
217 8
218 2
219 2
DEPOT_SECTION
1
-1
EOF