SDVRP instances/custom_instances/p01_14_split0.sol
218 -1 4 3 2 72 71 70 73 174 173 -8 7 104 109 107 108 106 105 85 87 88 86 84 -10 5 9 6 177 178 76 77 74 75 54 52 50 53 51 -21 20 22 23 206 207 209 211 210 208 -25 28 26 27 24 94 89 93 90 92 91 95 46 44 41 43 42 45 -31 32 34 30 29 33 175 176 172 171 122 121 120 -40 39 37 35 38 36 199 198 201 200 19 17 15 14 16 18 114 -57 56 58 55 59 146 144 145 -60 63 64 65 61 62 165 162 163 164 80 83 81 82 -68 69 66 67 79 78 112 111 113 110 -103 101 102 129 127 128 130 -123 119 148 147 13 12 11 133 134 131 132 -124 125 126 196 195 197 194 188 186 184 96 217 218 215 216 -138 137 135 136 139 156 153 154 157 155 150 151 149 152 -161 158 159 160 97 98 100 99 213 214 212 -167 166 168 170 169 48 49 47 143 141 142 140 117 116 118 115 185 187 -181 180 179 182 183 189 191 193 190 192 204 205 202 203 0 





OBJ=
1708.295
BEST_KNOWN=
0.000